(declare-fun var0 () String)
(assert (RegexIn var0 (RegexConcat (RegexPlus (RegexPlus (Str2Reg "__"))) (RegexConcat (RegexStar (RegexStar (Str2Reg "^^^"))) (RegexConcat (RegexUnion (RegexPlus (Str2Reg "\\\\")) (RegexStar (Str2Reg "]]"))) (RegexConcat (RegexUnion (RegexPlus (Str2Reg "@")) (RegexStar (Str2Reg "[["))) (RegexConcat (RegexStar (RegexUnion (Str2Reg ">>>") (Str2Reg "???"))) (RegexConcat (RegexUnion (RegexStar (Str2Reg ";;;")) (RegexUnion (Str2Reg "<<<") (Str2Reg "="))) (RegexConcat (RegexUnion (RegexPlus (Str2Reg "...")) (RegexUnion (Str2Reg "//") (Str2Reg "::"))) (RegexConcat (RegexPlus (RegexPlus (Str2Reg "-"))) (RegexConcat (RegexUnion (RegexPlus (Str2Reg "*")) (RegexUnion (Str2Reg "+++") (Str2Reg ",,"))) (RegexConcat (RegexUnion (RegexPlus (Str2Reg "'''")) (RegexUnion (Str2Reg "(") (Str2Reg "))"))) (RegexConcat (RegexUnion (RegexStar (Str2Reg "$$")) (RegexUnion (Str2Reg "%") (Str2Reg "&&"))) (RegexConcat (RegexUnion (RegexPlus (Str2Reg "\"\"\"")) (RegexPlus (Str2Reg "###"))) (RegexConcat (RegexStar (RegexStar (Str2Reg "!!"))) (RegexConcat (RegexPlus (RegexUnion (Str2Reg "Y") (Str2Reg "Z"))) (RegexConcat (RegexUnion (RegexUnion (Str2Reg "VVV") (Str2Reg "WWW")) (RegexPlus (Str2Reg "XXX"))) (RegexConcat (RegexPlus (RegexUnion (Str2Reg "TTT") (Str2Reg "UU"))) (RegexConcat (RegexStar (RegexPlus (Str2Reg "S"))) (RegexConcat (RegexUnion (RegexUnion (Str2Reg "PPP") (Str2Reg "QQQ")) (RegexStar (Str2Reg "RR"))) (RegexConcat (RegexStar (RegexStar (Str2Reg "OO"))) (RegexConcat (RegexUnion (RegexUnion (Str2Reg "KKK") (Str2Reg "LLL")) (RegexUnion (Str2Reg "MMM") (Str2Reg "NNN"))) (RegexConcat (RegexPlus (RegexStar (Str2Reg "J"))) (RegexConcat (RegexPlus (RegexStar (Str2Reg "III"))) (RegexConcat (RegexPlus (RegexUnion (Str2Reg "GGG") (Str2Reg "HH"))) (RegexConcat (RegexStar (RegexPlus (Str2Reg "F"))) (RegexConcat (RegexPlus (RegexUnion (Str2Reg "DD") (Str2Reg "E"))) (RegexConcat (RegexPlus (RegexUnion (Str2Reg "BB") (Str2Reg "CCC"))) (RegexConcat (RegexStar (RegexPlus (Str2Reg "A"))) (RegexConcat (RegexStar (RegexStar (Str2Reg "zzz"))) (RegexConcat (RegexUnion (RegexPlus (Str2Reg "www")) (RegexUnion (Str2Reg "xx") (Str2Reg "yyy"))) (RegexConcat (RegexUnion (RegexPlus (Str2Reg "tt")) (RegexUnion (Str2Reg "uu") (Str2Reg "v"))) (RegexConcat (RegexUnion (RegexPlus (Str2Reg "qqq")) (RegexUnion (Str2Reg "r") (Str2Reg "sss"))) (RegexConcat (RegexPlus (RegexPlus (Str2Reg "p"))) (RegexConcat (RegexPlus (RegexPlus (Str2Reg "ooo"))) (RegexConcat (RegexStar (RegexUnion (Str2Reg "mm") (Str2Reg "n"))) (RegexConcat (RegexStar (RegexPlus (Str2Reg "l"))) (RegexConcat (RegexStar (RegexStar (Str2Reg "kkk"))) (RegexConcat (RegexStar (RegexStar (Str2Reg "jjj"))) (RegexConcat (RegexPlus (RegexPlus (Str2Reg "ii"))) (RegexConcat (RegexUnion (RegexPlus (Str2Reg "gg")) (RegexStar (Str2Reg "hh"))) (RegexConcat (RegexUnion (RegexStar (Str2Reg "ee")) (RegexStar (Str2Reg "ff"))) (RegexConcat (RegexPlus (RegexUnion (Str2Reg "ccc") (Str2Reg "ddd"))) (RegexConcat (RegexPlus (RegexUnion (Str2Reg "a") (Str2Reg "b"))) (RegexConcat (RegexStar (RegexUnion (Str2Reg "8") (Str2Reg "99"))) (RegexConcat (RegexUnion (RegexPlus (Str2Reg "666")) (RegexStar (Str2Reg "777"))) (RegexConcat (RegexStar (RegexUnion (Str2Reg "4") (Str2Reg "5"))) (RegexConcat (RegexUnion (RegexStar (Str2Reg "222")) (RegexStar (Str2Reg "3"))) (RegexConcat (RegexPlus (RegexPlus (Str2Reg "111"))) (RegexConcat (RegexPlus (RegexPlus (Str2Reg "00"))) (RegexConcat (RegexStar (RegexUnion (Str2Reg "}}}") (Str2Reg "~"))) (RegexConcat (RegexStar (RegexStar (Str2Reg "||"))) (RegexConcat (RegexPlus (RegexUnion (Str2Reg "`") (Str2Reg "{{"))) (RegexConcat (RegexPlus (RegexPlus (Str2Reg "_"))) (RegexConcat (RegexStar (RegexPlus (Str2Reg "^^^"))) (RegexConcat (RegexPlus (RegexStar (Str2Reg "]]]"))) (RegexConcat (RegexStar (RegexStar (Str2Reg "\\\\"))) (RegexConcat (RegexStar (RegexUnion (Str2Reg "@@") (Str2Reg "[["))) (RegexConcat (RegexPlus (RegexPlus (Str2Reg "???"))) (RegexConcat (RegexPlus (RegexPlus (Str2Reg ">>"))) (RegexConcat (RegexStar (RegexUnion (Str2Reg "<") (Str2Reg "=="))) (RegexConcat (RegexUnion (RegexPlus (Str2Reg "::")) (RegexPlus (Str2Reg ";"))) (RegexConcat (RegexStar (RegexUnion (Str2Reg "..") (Str2Reg "/"))) (RegexConcat (RegexStar (RegexPlus (Str2Reg "---"))) (RegexConcat (RegexStar (RegexStar (Str2Reg ","))) (RegexConcat (RegexStar (RegexUnion (Str2Reg "**") (Str2Reg "+++"))) (RegexConcat (RegexStar (RegexStar (Str2Reg ")"))) (RegexConcat (RegexPlus (RegexPlus (Str2Reg "("))) (RegexConcat (RegexPlus (RegexPlus (Str2Reg "''"))) (RegexConcat (RegexUnion (RegexPlus (Str2Reg "%%")) (RegexPlus (Str2Reg "&&&"))) (RegexConcat (RegexStar (RegexPlus (Str2Reg "$"))) (RegexConcat (RegexPlus (RegexPlus (Str2Reg "#"))) (RegexConcat (RegexPlus (RegexPlus (Str2Reg "\""))) (RegexConcat (RegexPlus (RegexUnion (Str2Reg "ZZ") (Str2Reg "!"))) (RegexConcat (RegexStar (RegexUnion (Str2Reg "XXX") (Str2Reg "Y"))) (RegexConcat (RegexPlus (RegexStar (Str2Reg "WWW"))) (RegexConcat (RegexPlus (RegexStar (Str2Reg "VVV"))) (RegexConcat (RegexUnion (RegexPlus (Str2Reg "TT")) (RegexPlus (Str2Reg "UUU"))) (RegexConcat (RegexUnion (RegexUnion (Str2Reg "Q") (Str2Reg "RRR")) (RegexPlus (Str2Reg "SSS"))) (RegexConcat (RegexStar (RegexStar (Str2Reg "P"))) (RegexConcat (RegexStar (RegexPlus (Str2Reg "OO"))) (RegexConcat (RegexPlus (RegexStar (Str2Reg "NNN"))) (RegexConcat (RegexStar (RegexUnion (Str2Reg "LLL") (Str2Reg "MM"))) (RegexConcat (RegexPlus (RegexStar (Str2Reg "KK"))) (RegexConcat (RegexUnion (RegexPlus (Str2Reg "II")) (RegexStar (Str2Reg "JJJ"))) (RegexConcat (RegexUnion (RegexPlus (Str2Reg "FFF")) (RegexUnion (Str2Reg "GGG") (Str2Reg "HH"))) (RegexConcat (RegexStar (RegexUnion (Str2Reg "DD") (Str2Reg "EEE"))) (RegexConcat (RegexUnion (RegexPlus (Str2Reg "BBB")) (RegexStar (Str2Reg "CC"))) (RegexConcat (RegexStar (RegexPlus (Str2Reg "AAA"))) (RegexConcat (RegexUnion (RegexUnion (Str2Reg "ww") (Str2Reg "xxx")) (RegexUnion (Str2Reg "yy") (Str2Reg "zzz"))) (RegexConcat (RegexStar (RegexUnion (Str2Reg "u") (Str2Reg "vv"))) (RegexConcat (RegexPlus (RegexUnion (Str2Reg "sss") (Str2Reg "ttt"))) (RegexConcat (RegexUnion (RegexStar (Str2Reg "ppp")) (RegexUnion (Str2Reg "qq") (Str2Reg "rrr"))) (RegexConcat (RegexUnion (RegexStar (Str2Reg "mmm")) (RegexUnion (Str2Reg "n") (Str2Reg "ooo"))) (RegexConcat (RegexUnion (RegexUnion (Str2Reg "i") (Str2Reg "jj")) (RegexUnion (Str2Reg "kk") (Str2Reg "ll"))) (RegexConcat (RegexPlus (RegexPlus (Str2Reg "hhh"))) (RegexConcat (RegexUnion (RegexPlus (Str2Reg "f")) (RegexStar (Str2Reg "ggg"))) (RegexConcat (RegexPlus (RegexStar (Str2Reg "ee"))) (RegexConcat (RegexStar (RegexPlus (Str2Reg "d"))) (RegexConcat (RegexPlus (RegexStar (Str2Reg "cc"))) (RegexConcat (RegexUnion (RegexStar (Str2Reg "aaa")) (RegexStar (Str2Reg "bb"))) (RegexConcat (RegexStar (RegexStar (Str2Reg "99"))) (RegexConcat (RegexStar (RegexStar (Str2Reg "888"))) (RegexConcat (RegexStar (RegexPlus (Str2Reg "7"))) (RegexConcat (RegexPlus (RegexStar (Str2Reg "66"))) (RegexConcat (RegexUnion (RegexUnion (Str2Reg "333") (Str2Reg "444")) (RegexStar (Str2Reg "5"))) (RegexConcat (RegexStar (RegexStar (Str2Reg "222"))) (RegexUnion (RegexStar (Str2Reg "0")) (RegexPlus (Str2Reg "1"))))))))))))))))))))))))))))))))))))))))))))))))))))))))))))))))))))))))))))))))))))))))))))))))))))))))))))))
(check-sat)